Route #1: 2 48 38 16 9 34 32 46 13
Route #2: 26 19 15 49 17 22 50 12 45 4
Route #3: 23 14 39 21 11 28 24 31 3
Route #4: 1 30 18 20 42 40
Route #5: 51 5 8 27 29 10 44
Route #6: 47 37 7 43 35 33
Route #7: 36 6 25 41
Cost 754